memory 30 gb

molecule {
O    1.209153654800    1.766411818900   -0.017161397200
H    2.198480007500    1.797710062700    0.012116171900
H    0.919788188200    2.458018557000    0.629793883200
symmetry c1
}

set {
    basis sto-3g
    scf_type pk
}

# Run energy compt
e, wfn = psi4.energy("scf", return_wfn=True)

wfn.form_G()
#wfn.form_F()

    
