import psi4

# Basic options trying to be uniform

psi4.set_num_threads(10)
psi4.set_memory('90 GB')
psi4.set_options({"basis" : "cc-pvdz",
                  "scf_type" : "df",
                  "cc_type" : "df",
                  "df_basis_scf" : "cc-pvtz-jkfit",
                  "df_basis_cc" : "cc-pvtz-ri",
                  "puream" : True,
                  "TRIPLES_LOW_MEMORY" : False,
                  "e_convergence" : 1e-8,
                  "d_convergence" : 1e-8})

molecule {
 O   -1.485163346097   -0.114724564047    0.000000000000
 H   -1.868415346097    0.762298435953    0.000000000000
 H   -0.533833346097    0.040507435953    0.000000000000
 O    1.416468653903    0.111264435953    0.000000000000
 H    1.746241653903   -0.373945564047   -0.758561000000
 H    1.746241653903   -0.373945564047    0.758561000000
symmetry c1
}

energy("ccsd(t)")
